nTasks=4;
nThreads=7;
nCPUs=3;
nCores=9;
rh=[207.089266889 648.20201412 209.53525038 352.862450475 867.242397794 365.017969903 672.016011281];
rc=[607.456508355 543.391095171 427.256520837];
CK=[
	[1 1 0 0 0 0 0 0 0]
	[0 0 1 1 1 0 0 0 0]
	[0 0 0 0 0 1 1 1 1]
];
TH=[
	[1 0 0 0 0 0 0]
	[0 1 1 1 1 0 0]
	[0 0 0 0 0 1 0]
	[0 0 0 0 0 0 1]
];
